NAME : n80w80.005.570.tour
COMMENT : Length = 570
COMMENT : Found by LKH [Keld Helsgaun] Tue May  2 05:18:29 2017
TYPE : TOUR
DIMENSION : 81
TOUR_SECTION
1
17
74
34
6
80
46
73
5
78
45
72
10
49
32
56
51
64
62
22
58
25
27
63
54
48
66
69
53
33
55
61
14
4
77
11
28
47
57
75
41
44
29
9
59
70
15
8
16
65
50
35
38
23
76
31
36
68
30
19
2
79
40
7
21
20
67
3
71
13
12
26
42
37
39
18
60
24
81
43
52
-1
EOF
